(declare-fun temp270_1 () (_ BitVec 64))
(declare-fun var79569 () (_ BitVec 64))
(declare-fun k!0 () Bool)
(declare-fun ARGNAME_input1_NAMEEND_DIM () (_ BitVec 64))
(declare-fun ARGNAME_input2_NAMEEND_DIM () (_ BitVec 64))
(declare-fun temp270_2 () (_ BitVec 64))
(declare-fun var79623 () (_ BitVec 64))
(declare-fun var204300 () (_ BitVec 64))
(declare-fun temp270_4 () (_ BitVec 64))
(declare-fun temp270_3 () (_ BitVec 64))
(declare-fun var267251 () (_ BitVec 64))
(declare-fun var267252 () (_ BitVec 64))
(declare-fun temp270_5 () (_ BitVec 64))
(declare-fun temp270_6 () (_ BitVec 64))
(declare-fun var336917 () (_ BitVec 64))
(declare-fun var402464 () (_ BitVec 64))
(declare-fun var204318 () (_ BitVec 64))
(declare-fun temp270_7 () (_ BitVec 64))
(declare-fun var79724 () (_ BitVec 64))
(declare-fun temp270_8 () (_ BitVec 64))
(declare-fun temp270_9 () (_ BitVec 64))
(declare-fun ARGNAME_input1_NAMEEND_DIMSIZE
             ()
             (Array (_ BitVec 64) (_ BitVec 64)))
(declare-fun temp270_10 () (_ BitVec 64))
(declare-fun temp270_11 () (_ BitVec 64))
(declare-fun temp270_12 () (_ BitVec 64))
(declare-fun temp270_13 () (_ BitVec 64))
(declare-fun temp270_14 () (_ BitVec 64))
(declare-fun temp270_15 () (_ BitVec 64))
(declare-fun temp270_16 () (_ BitVec 64))
(declare-fun temp270_17 () (_ BitVec 64))
(declare-fun temp270_18 () (_ BitVec 64))
(declare-fun temp270_19 () (_ BitVec 64))
(declare-fun temp270_20 () (_ BitVec 64))
(declare-fun temp270_21 () (_ BitVec 64))
(declare-fun temp270_22 () (_ BitVec 64))
(declare-fun temp270_23 () (_ BitVec 64))
(declare-fun temp270_24 () (_ BitVec 64))
(declare-fun temp270_25 () (_ BitVec 64))
(declare-fun temp270_26 () (_ BitVec 64))
(declare-fun temp270_27 () (_ BitVec 64))
(declare-fun temp270_28 () (_ BitVec 64))
(declare-fun var79725 () (_ BitVec 64))
(declare-fun temp270_29 () (_ BitVec 64))
(declare-fun var66592 () (_ BitVec 64))
(declare-fun temp270_30 () (_ BitVec 64))
(declare-fun temp270_31 () (_ BitVec 64))
(declare-fun ARGNAME_weight_NAMEEND_DIMSIZE
             ()
             (Array (_ BitVec 64) (_ BitVec 64)))
(declare-fun temp270_32 () (_ BitVec 64))
(declare-fun temp270_33 () (_ BitVec 64))
(declare-fun temp270_34 () (_ BitVec 64))
(declare-fun temp270_35 () (_ BitVec 64))
(declare-fun temp270_36 () (_ BitVec 64))
(declare-fun temp270_37 () (_ BitVec 64))
(declare-fun temp270_38 () (_ BitVec 64))
(declare-fun temp270_39 () (_ BitVec 64))
(declare-fun temp270_40 () (_ BitVec 64))
(declare-fun temp270_41 () (_ BitVec 64))
(declare-fun temp270_42 () (_ BitVec 64))
(declare-fun temp270_43 () (_ BitVec 64))
(declare-fun temp270_44 () (_ BitVec 64))
(declare-fun temp270_45 () (_ BitVec 64))
(declare-fun temp270_46 () (_ BitVec 64))
(declare-fun temp270_47 () (_ BitVec 64))
(declare-fun temp270_48 () (_ BitVec 64))
(declare-fun ARGNAME_weight_NAMEEND_DIM () (_ BitVec 64))
(declare-fun temp270_49 () (_ BitVec 64))
(declare-fun temp270_50 () (_ BitVec 64))
(declare-fun var79727 () (_ BitVec 64))
(declare-fun var79728 () (_ BitVec 64))
(declare-fun temp270_51 () (_ BitVec 64))
(declare-fun temp270_52 () (_ BitVec 64))
(declare-fun var79776 () (_ BitVec 64))
(declare-fun temp270_53 () (_ BitVec 64))
(declare-fun temp270_54 () (_ BitVec 64))
(declare-fun ARGNAME_input2_NAMEEND_DIMSIZE
             ()
             (Array (_ BitVec 64) (_ BitVec 64)))
(declare-fun temp270_55 () (_ BitVec 64))
(declare-fun temp270_56 () (_ BitVec 64))
(declare-fun temp270_57 () (_ BitVec 64))
(declare-fun temp270_58 () (_ BitVec 64))
(declare-fun temp270_59 () (_ BitVec 64))
(declare-fun temp270_60 () (_ BitVec 64))
(declare-fun temp270_61 () (_ BitVec 64))
(declare-fun temp270_62 () (_ BitVec 64))
(declare-fun temp270_63 () (_ BitVec 64))
(declare-fun temp270_64 () (_ BitVec 64))
(declare-fun temp270_65 () (_ BitVec 64))
(declare-fun temp270_66 () (_ BitVec 64))
(declare-fun temp270_67 () (_ BitVec 64))
(declare-fun temp270_68 () (_ BitVec 64))
(declare-fun temp270_69 () (_ BitVec 64))
(declare-fun temp270_70 () (_ BitVec 64))
(declare-fun temp270_71 () (_ BitVec 64))
(declare-fun temp270_72 () (_ BitVec 64))
(declare-fun temp270_73 () (_ BitVec 64))
(declare-fun var79777 () (_ BitVec 64))
(declare-fun temp270_74 () (_ BitVec 64))
(declare-fun var66492 () (_ BitVec 64))
(declare-fun temp270_75 () (_ BitVec 64))
(declare-fun temp270_76 () (_ BitVec 64))
(declare-fun temp270_77 () (_ BitVec 64))
(declare-fun var79778 () (_ BitVec 64))
(declare-fun var79779 () (_ BitVec 64))
(declare-fun temp270_78 () (_ BitVec 64))
(declare-fun temp270_79 () (_ BitVec 64))
(declare-fun var65961 () (_ BitVec 64))
(declare-fun temp270_80 () (_ BitVec 64))
(declare-fun temp270_81 () (_ BitVec 64))
(declare-fun ARGNAME_bias_NAMEEND_DIMSIZE
             ()
             (Array (_ BitVec 64) (_ BitVec 64)))
(declare-fun temp270_82 () (_ BitVec 64))
(declare-fun temp270_83 () (_ BitVec 64))
(declare-fun temp270_84 () (_ BitVec 64))
(declare-fun temp270_85 () (_ BitVec 64))
(declare-fun temp270_86 () (_ BitVec 64))
(declare-fun temp270_87 () (_ BitVec 64))
(declare-fun temp270_88 () (_ BitVec 64))
(declare-fun temp270_89 () (_ BitVec 64))
(declare-fun temp270_90 () (_ BitVec 64))
(declare-fun temp270_91 () (_ BitVec 64))
(declare-fun temp270_92 () (_ BitVec 64))
(declare-fun temp270_93 () (_ BitVec 64))
(declare-fun temp270_94 () (_ BitVec 64))
(declare-fun temp270_95 () (_ BitVec 64))
(declare-fun temp270_96 () (_ BitVec 64))
(declare-fun temp270_97 () (_ BitVec 64))
(declare-fun temp270_98 () (_ BitVec 64))
(declare-fun ARGNAME_bias_NAMEEND_DIM () (_ BitVec 64))
(declare-fun temp270_99 () (_ BitVec 64))
(declare-fun temp270_100 () (_ BitVec 64))
(declare-fun var79827 () (_ BitVec 64))
(declare-fun temp270_101 () (_ BitVec 64))
(declare-fun temp270_102 () (_ BitVec 64))
(declare-fun temp270_103 () (_ BitVec 64))
(declare-fun temp270_104 () (_ BitVec 64))
(declare-fun var79828 () (_ BitVec 64))
(declare-fun var79829 () (_ BitVec 64))
(declare-fun temp270_105 () (_ BitVec 64))
(declare-fun temp270_106 () (_ BitVec 64))
(declare-fun temp270_107 () (_ BitVec 64))
(declare-fun temp270_108 () (_ BitVec 64))
(declare-fun temp270_109 () (_ BitVec 64))
(declare-fun var79903 () (_ BitVec 64))
(declare-fun temp270_110 () (_ BitVec 64))
(declare-fun var3023325 () (_ BitVec 64))
(declare-fun temp270_112 () (_ BitVec 64))
(declare-fun temp270_111 () (_ BitVec 64))
(declare-fun temp270_113 () (_ BitVec 64))
(declare-fun var67207 () (_ BitVec 64))
(declare-fun temp270_114 () (_ BitVec 64))
(declare-fun temp270_115 () (_ BitVec 64))
(declare-fun temp270_116 () (_ BitVec 64))
(declare-fun var79915 () (_ BitVec 64))
(declare-fun temp270_117 () (_ BitVec 64))
(declare-fun temp270_118 () (_ BitVec 64))
(declare-fun temp270_119 () (_ BitVec 64))
(declare-fun temp270_120 () (_ BitVec 64))
(declare-fun var79938 () (_ BitVec 64))
(declare-fun temp270_122 () (_ BitVec 64))
(declare-fun temp270_121 () (_ BitVec 64))
(declare-fun temp270_124 () (_ BitVec 64))
(declare-fun temp270_123 () (_ BitVec 64))
(declare-fun var4533243 () (_ BitVec 64))
(declare-fun temp270_125 () (_ BitVec 64))
(declare-fun var4533374 () (_ BitVec 64))
(declare-fun temp270_127 () (_ BitVec 64))
(declare-fun temp270_126 () (_ BitVec 64))
(declare-fun temp270_128 () (_ BitVec 64))
(declare-fun var5318818 () (_ BitVec 64))
(declare-fun temp270_129 () (_ BitVec 64))
(declare-fun var5973063 () (_ BitVec 64))
(declare-fun temp270_131 () (_ BitVec 64))
(declare-fun temp270_130 () (_ BitVec 64))
(declare-fun temp270_132 () (_ BitVec 64))
(declare-fun var6957218 () (_ BitVec 64))
(declare-fun temp270_133 () (_ BitVec 64))
(declare-fun var7611463 () (_ BitVec 64))
(declare-fun temp270_135 () (_ BitVec 64))
(declare-fun temp270_134 () (_ BitVec 64))
(declare-fun temp270_136 () (_ BitVec 64))
(declare-fun var8595618 () (_ BitVec 64))
(declare-fun temp270_137 () (_ BitVec 64))
(declare-fun var9249863 () (_ BitVec 64))
(declare-fun temp270_139 () (_ BitVec 64))
(declare-fun temp270_138 () (_ BitVec 64))
(declare-fun temp270_140 () (_ BitVec 64))
(declare-fun var10234018 () (_ BitVec 64))
(declare-fun temp270_141 () (_ BitVec 64))
(declare-fun var10888263 () (_ BitVec 64))
(declare-fun temp270_143 () (_ BitVec 64))
(declare-fun temp270_142 () (_ BitVec 64))
(declare-fun temp270_144 () (_ BitVec 64))
(declare-fun var11871253 () (_ BitVec 64))
(declare-fun var11936800 () (_ BitVec 64))
(declare-fun temp270_145 () (_ BitVec 64))
(declare-fun var4533542 () (_ BitVec 64))
(declare-fun temp270_146 () (_ BitVec 64))
(declare-fun var4533583 () (_ BitVec 64))
(declare-fun var4533617 () (_ BitVec 64))
(declare-fun var4533671 () (_ BitVec 64))
(declare-fun var15081033 () (_ BitVec 64))
(declare-fun var15408713 () (_ BitVec 64))
(declare-fun var15736393 () (_ BitVec 64))
(declare-fun temp270_147 () (_ BitVec 64))
(declare-fun ARGNAME_weight_NAMEEND_NUMELEMENT () (_ BitVec 64))
(declare-fun var4533720 () (_ BitVec 64))
(declare-fun temp270_148 () (_ BitVec 64))
(declare-fun var16850505 () (_ BitVec 64))
(declare-fun temp270_150 () (_ BitVec 64))
(declare-fun temp270_149 () (_ BitVec 64))
(declare-fun temp270_151 () (_ BitVec 64))
(declare-fun var17310741 () (_ BitVec 64))
(declare-fun var17376288 () (_ BitVec 64))
(declare-fun var17772587 () (_ BitVec 64))
(declare-fun temp270_152 () (_ BitVec 64))
(declare-fun var17772589 () (_ BitVec 64))
(declare-fun var17838123 () (_ BitVec 64))
(declare-fun temp270_153 () (_ BitVec 64))
(declare-fun var17838125 () (_ BitVec 64))
(declare-fun var18362411 () (_ BitVec 64))
(declare-fun temp270_154 () (_ BitVec 64))
(declare-fun var18362413 () (_ BitVec 64))
(declare-fun temp270_155 () (_ BitVec 64))
(declare-fun var19735623 () (_ BitVec 64))
(declare-fun temp270_157 () (_ BitVec 64))
(declare-fun temp270_156 () (_ BitVec 64))
(declare-fun temp270_158 () (_ BitVec 64))
(declare-fun var20522005 () (_ BitVec 64))
(declare-fun temp270_159 () (_ BitVec 64))
(declare-fun var18683626 () (_ BitVec 64))
(declare-fun var18683596 () (_ BitVec 64))
(declare-fun var18683595 () (_ BitVec 64))
(declare-fun temp270_161 () (_ BitVec 64))
(declare-fun temp270_160 () (_ BitVec 64))
(declare-fun temp270_163 () (_ BitVec 64))
(declare-fun temp270_162 () (_ BitVec 64))
(declare-fun temp270_164 () (_ BitVec 64))
(declare-fun var18684037 () (_ BitVec 64))
(declare-fun var18684123 () (_ BitVec 64))
(declare-fun temp270_165 () (_ BitVec 64))
(declare-fun var18684117 () (_ BitVec 64))
(declare-fun var18684116 () (_ BitVec 64))
(declare-fun var18684135 () (_ BitVec 64))
(declare-fun temp270_167 () (_ BitVec 64))
(declare-fun temp270_166 () (_ BitVec 64))
(declare-fun temp270_169 () (_ BitVec 64))
(declare-fun temp270_168 () (_ BitVec 64))
(assert (= var79569
   (ite (= ARGNAME_input1_NAMEEND_DIM ARGNAME_input2_NAMEEND_DIM)
        #x0000000000000001
        #x0000000000000000)))
(assert (= temp270_1 #x0000000000000001))
(assert (= var79569 temp270_1))
(assert (= temp270_2 #xffffffffffffffff))
(assert (= var79623 (bvadd ARGNAME_input1_NAMEEND_DIM temp270_2)))
(assert (= var204300 var79623))
(assert (= temp270_4 #x0000000000000000))
(assert (= temp270_3 temp270_4))
(assert (= var267251 var204300))
(assert (= var267252
   (ite (bvslt temp270_3 var267251) #x0000000000000001 #x0000000000000000)))
(assert (= temp270_5 (ite (= var267252 #x0000000000000001) var204300 temp270_3)))
(assert (= temp270_6 #x0000000000000000))
(assert (= var336917 temp270_6))
(assert (= var402464 var336917))
(assert (= var204318 var402464))
(assert (= temp270_7 #xffffffffffffffff))
(assert (= var79724 (bvadd ARGNAME_input1_NAMEEND_DIM temp270_7)))
(assert (= temp270_8 #x0000000000000000))
(assert (= temp270_9 temp270_8))
(assert (= temp270_10 (select ARGNAME_input1_NAMEEND_DIMSIZE temp270_9)))
(assert (= temp270_11 #x0000000000000001))
(assert (= temp270_12 temp270_11))
(assert (= temp270_13 (select ARGNAME_input1_NAMEEND_DIMSIZE temp270_12)))
(assert (= temp270_14 #x0000000000000002))
(assert (= temp270_15 temp270_14))
(assert (= temp270_16 (select ARGNAME_input1_NAMEEND_DIMSIZE temp270_15)))
(assert (= temp270_17 #x0000000000000003))
(assert (= temp270_18 temp270_17))
(assert (= temp270_19 (select ARGNAME_input1_NAMEEND_DIMSIZE temp270_18)))
(assert (= temp270_20 #x0000000000000004))
(assert (= temp270_21 temp270_20))
(assert (= temp270_22 (select ARGNAME_input1_NAMEEND_DIMSIZE temp270_21)))
(assert (= temp270_23 #x0000000000000005))
(assert (= temp270_24 temp270_23))
(assert (= temp270_25 (select ARGNAME_input1_NAMEEND_DIMSIZE temp270_24)))
(assert (= temp270_26 #x0000000000000000))
(assert (= temp270_27
   (ite (bvslt var79724 temp270_26)
        (bvadd ARGNAME_input1_NAMEEND_DIM var79724)
        var79724)))
(assert (= temp270_28 (select ARGNAME_input1_NAMEEND_DIMSIZE temp270_27)))
(assert (= var79725 temp270_28))
(assert (bvslt (ite (bvslt var79724 temp270_26)
            (bvadd ARGNAME_input1_NAMEEND_DIM var79724)
            var79724)
       ARGNAME_input1_NAMEEND_DIM))
(assert (= temp270_29 #x0000000000000001))
(assert (= var66592 temp270_29))
(assert (= temp270_30 #x0000000000000000))
(assert (= temp270_31 temp270_30))
(assert (= temp270_32 (select ARGNAME_weight_NAMEEND_DIMSIZE temp270_31)))
(assert (= temp270_33 #x0000000000000001))
(assert (= temp270_34 temp270_33))
(assert (= temp270_35 (select ARGNAME_weight_NAMEEND_DIMSIZE temp270_34)))
(assert (= temp270_36 #x0000000000000002))
(assert (= temp270_37 temp270_36))
(assert (= temp270_38 (select ARGNAME_weight_NAMEEND_DIMSIZE temp270_37)))
(assert (= temp270_39 #x0000000000000003))
(assert (= temp270_40 temp270_39))
(assert (= temp270_41 (select ARGNAME_weight_NAMEEND_DIMSIZE temp270_40)))
(assert (= temp270_42 #x0000000000000004))
(assert (= temp270_43 temp270_42))
(assert (= temp270_44 (select ARGNAME_weight_NAMEEND_DIMSIZE temp270_43)))
(assert (= temp270_45 #x0000000000000005))
(assert (= temp270_46 temp270_45))
(assert (= temp270_47 (select ARGNAME_weight_NAMEEND_DIMSIZE temp270_46)))
(assert (= temp270_48 #x0000000000000000))
(assert (= temp270_49
   (ite (bvslt var66592 temp270_48)
        (bvadd ARGNAME_weight_NAMEEND_DIM var66592)
        var66592)))
(assert (= temp270_50 (select ARGNAME_weight_NAMEEND_DIMSIZE temp270_49)))
(assert (= var79727 temp270_50))
(assert (bvslt (ite (bvslt var66592 temp270_48)
            (bvadd ARGNAME_weight_NAMEEND_DIM var66592)
            var66592)
       ARGNAME_weight_NAMEEND_DIM))
(assert (= var79728 (ite (= var79725 var79727) #x0000000000000001 #x0000000000000000)))
(assert (= temp270_51 #x0000000000000001))
(assert (= var79728 temp270_51))
(assert (= temp270_52 #xffffffffffffffff))
(assert (= var79776 (bvadd ARGNAME_input2_NAMEEND_DIM temp270_52)))
(assert (= temp270_53 #x0000000000000000))
(assert (= temp270_54 temp270_53))
(assert (= temp270_55 (select ARGNAME_input2_NAMEEND_DIMSIZE temp270_54)))
(assert (= temp270_56 #x0000000000000001))
(assert (= temp270_57 temp270_56))
(assert (= temp270_58 (select ARGNAME_input2_NAMEEND_DIMSIZE temp270_57)))
(assert (= temp270_59 #x0000000000000002))
(assert (= temp270_60 temp270_59))
(assert (= temp270_61 (select ARGNAME_input2_NAMEEND_DIMSIZE temp270_60)))
(assert (= temp270_62 #x0000000000000003))
(assert (= temp270_63 temp270_62))
(assert (= temp270_64 (select ARGNAME_input2_NAMEEND_DIMSIZE temp270_63)))
(assert (= temp270_65 #x0000000000000004))
(assert (= temp270_66 temp270_65))
(assert (= temp270_67 (select ARGNAME_input2_NAMEEND_DIMSIZE temp270_66)))
(assert (= temp270_68 #x0000000000000005))
(assert (= temp270_69 temp270_68))
(assert (= temp270_70 (select ARGNAME_input2_NAMEEND_DIMSIZE temp270_69)))
(assert (= temp270_71 #x0000000000000000))
(assert (= temp270_72
   (ite (bvslt var79776 temp270_71)
        (bvadd ARGNAME_input2_NAMEEND_DIM var79776)
        var79776)))
(assert (= temp270_73 (select ARGNAME_input2_NAMEEND_DIMSIZE temp270_72)))
(assert (= var79777 temp270_73))
(assert (bvslt (ite (bvslt var79776 temp270_71)
            (bvadd ARGNAME_input2_NAMEEND_DIM var79776)
            var79776)
       ARGNAME_input2_NAMEEND_DIM))
(assert (= temp270_74 #x0000000000000002))
(assert (= var66492 temp270_74))
(assert (= temp270_75 #x0000000000000000))
(assert (= temp270_76
   (ite (bvslt var66492 temp270_75)
        (bvadd ARGNAME_weight_NAMEEND_DIM var66492)
        var66492)))
(assert (= temp270_77 (select ARGNAME_weight_NAMEEND_DIMSIZE temp270_76)))
(assert (= var79778 temp270_77))
(assert (bvslt (ite (bvslt var66492 temp270_75)
            (bvadd ARGNAME_weight_NAMEEND_DIM var66492)
            var66492)
       ARGNAME_weight_NAMEEND_DIM))
(assert (= var79779 (ite (= var79777 var79778) #x0000000000000001 #x0000000000000000)))
(assert (= temp270_78 #x0000000000000001))
(assert (= var79779 temp270_78))
(assert (= temp270_79 #x0000000000000000))
(assert (= var65961 temp270_79))
(assert (= temp270_80 #x0000000000000000))
(assert (= temp270_81 temp270_80))
(assert (= temp270_82 (select ARGNAME_bias_NAMEEND_DIMSIZE temp270_81)))
(assert (= temp270_83 #x0000000000000001))
(assert (= temp270_84 temp270_83))
(assert (= temp270_85 (select ARGNAME_bias_NAMEEND_DIMSIZE temp270_84)))
(assert (= temp270_86 #x0000000000000002))
(assert (= temp270_87 temp270_86))
(assert (= temp270_88 (select ARGNAME_bias_NAMEEND_DIMSIZE temp270_87)))
(assert (= temp270_89 #x0000000000000003))
(assert (= temp270_90 temp270_89))
(assert (= temp270_91 (select ARGNAME_bias_NAMEEND_DIMSIZE temp270_90)))
(assert (= temp270_92 #x0000000000000004))
(assert (= temp270_93 temp270_92))
(assert (= temp270_94 (select ARGNAME_bias_NAMEEND_DIMSIZE temp270_93)))
(assert (= temp270_95 #x0000000000000005))
(assert (= temp270_96 temp270_95))
(assert (= temp270_97 (select ARGNAME_bias_NAMEEND_DIMSIZE temp270_96)))
(assert (= temp270_98 #x0000000000000000))
(assert (= temp270_99
   (ite (bvslt var65961 temp270_98)
        (bvadd ARGNAME_bias_NAMEEND_DIM var65961)
        var65961)))
(assert (= temp270_100 (select ARGNAME_bias_NAMEEND_DIMSIZE temp270_99)))
(assert (= var79827 temp270_100))
(assert (bvslt (ite (bvslt var65961 temp270_98)
            (bvadd ARGNAME_bias_NAMEEND_DIM var65961)
            var65961)
       ARGNAME_bias_NAMEEND_DIM))
(assert (= temp270_101 #x0000000000000000))
(assert (= var65961 temp270_101))
(assert (= temp270_102 #x0000000000000000))
(assert (= temp270_103
   (ite (bvslt var65961 temp270_102)
        (bvadd ARGNAME_weight_NAMEEND_DIM var65961)
        var65961)))
(assert (= temp270_104 (select ARGNAME_weight_NAMEEND_DIMSIZE temp270_103)))
(assert (= var79828 temp270_104))
(assert (bvslt (ite (bvslt var65961 temp270_102)
            (bvadd ARGNAME_weight_NAMEEND_DIM var65961)
            var65961)
       ARGNAME_weight_NAMEEND_DIM))
(assert (= var79829 (ite (= var79827 var79828) #x0000000000000001 #x0000000000000000)))
(assert (= temp270_105 #x0000000000000001))
(assert (= var79829 temp270_105))
(assert (= temp270_106 #x0000000000000000))
(assert (= var65961 temp270_106))
(assert (= temp270_107 #x0000000000000000))
(assert (= temp270_108
   (ite (bvslt var65961 temp270_107)
        (bvadd ARGNAME_weight_NAMEEND_DIM var65961)
        var65961)))
(assert (= temp270_109 (select ARGNAME_weight_NAMEEND_DIMSIZE temp270_108)))
(assert (= var79903 temp270_109))
(assert (bvslt (ite (bvslt var65961 temp270_107)
            (bvadd ARGNAME_weight_NAMEEND_DIM var65961)
            var65961)
       ARGNAME_weight_NAMEEND_DIM))
(assert (= temp270_110 #x0000000000000001))
(assert (= var3023325 temp270_110))
(assert (= temp270_112 #xffffffffffffffff))
(assert (= temp270_111 temp270_112))
(assert (= temp270_113 #xffffffffffffffff))
(assert (= var67207 temp270_113))
(assert (= temp270_114 #x0000000000000000))
(assert (= temp270_115
   (ite (bvslt var67207 temp270_114)
        (bvadd ARGNAME_input1_NAMEEND_DIM var67207)
        var67207)))
(assert (= temp270_116 (select ARGNAME_input1_NAMEEND_DIMSIZE temp270_115)))
(assert (= var79915 temp270_116))
(assert (bvslt (ite (bvslt var67207 temp270_114)
            (bvadd ARGNAME_input1_NAMEEND_DIM var67207)
            var67207)
       ARGNAME_input1_NAMEEND_DIM))
(assert (= temp270_117 #xffffffffffffffff))
(assert (= var67207 temp270_117))
(assert (= temp270_118 #x0000000000000000))
(assert (= temp270_119
   (ite (bvslt var67207 temp270_118)
        (bvadd ARGNAME_input2_NAMEEND_DIM var67207)
        var67207)))
(assert (= temp270_120 (select ARGNAME_input2_NAMEEND_DIMSIZE temp270_119)))
(assert (= var79938 temp270_120))
(assert (bvslt (ite (bvslt var67207 temp270_118)
            (bvadd ARGNAME_input2_NAMEEND_DIM var67207)
            var67207)
       ARGNAME_input2_NAMEEND_DIM))
(assert (= temp270_122 #x0000000000000003))
(assert (= temp270_121 temp270_122))
(assert (= temp270_124 #x0000000000000003))
(assert (= temp270_123 temp270_124))
(assert (= var4533243 var66592))
(assert (= temp270_125 #x000000000000003f))
(assert (= var4533374 (bvlshr var4533243 temp270_125)))
(assert (= temp270_127 #x0000000000000000))
(assert (= temp270_126 temp270_127))
(assert (= temp270_128 #x0000000000000000))
(assert (= var5318818 temp270_128))
(assert (= temp270_129 #x0000000000000001))
(assert (= var5973063 temp270_129))
(assert (= temp270_131 #x0000000000000000))
(assert (= temp270_130 temp270_131))
(assert (= temp270_132 #x0000000000000000))
(assert (= var6957218 temp270_132))
(assert (= temp270_133 #x0000000000000001))
(assert (= var7611463 temp270_133))
(assert (= temp270_135 #x0000000000000000))
(assert (= temp270_134 temp270_135))
(assert (= temp270_136 #x0000000000000000))
(assert (= var8595618 temp270_136))
(assert (= temp270_137 #x0000000000000001))
(assert (= var9249863 temp270_137))
(assert (= temp270_139 #x0000000000000000))
(assert (= temp270_138 temp270_139))
(assert (= temp270_140 #x0000000000000000))
(assert (= var10234018 temp270_140))
(assert (= temp270_141 #x0000000000000001))
(assert (= var10888263 temp270_141))
(assert (= temp270_143 #x0000000000000000))
(assert (= temp270_142 temp270_143))
(assert (= temp270_144 #x0000000000000000))
(assert (= var11871253 temp270_144))
(assert (= var11936800 var11871253))
(assert (= temp270_145 #xffffffffffffffff))
(assert (= var4533542 temp270_145))
(assert (= temp270_146 #x0000000000000000))
(assert (= var4533583 temp270_146))
(assert (= var4533617 var4533583))
(assert (= var4533671 var4533617))
(assert (= var15081033 var4533243))
(assert (= var15408713 var4533243))
(assert (= var15736393 var4533243))
(assert (= temp270_147 #x0000000000000000))
(assert (= var4533720
   (ite (= ARGNAME_weight_NAMEEND_NUMELEMENT temp270_147)
        #x0000000000000001
        #x0000000000000000)))
(assert (= temp270_148 #x0000000000000000))
(assert (= var4533720 temp270_148))
(assert (= var16850505 var4533243))
(assert (= temp270_150 #x0000000000000000))
(assert (= temp270_149 temp270_150))
(assert (= temp270_151 #x0000000000000000))
(assert (= var17310741 temp270_151))
(assert (= var17376288 var17310741))
(assert (= var17772587 var4533243))
(assert (= temp270_152 #x0000000000000001))
(assert (= var17772589 temp270_152))
(assert (= var17838123 var4533243))
(assert (= temp270_153 #x0000000000000001))
(assert (= var17838125 temp270_153))
(assert (= var18362411 var4533243))
(assert (= temp270_154 #x0000000000000001))
(assert (= var18362413 temp270_154))
(assert (= temp270_155 #x0000000000000001))
(assert (= var19735623 temp270_155))
(assert (= temp270_157 #x0000000000000000))
(assert (= temp270_156 temp270_157))
(assert (= temp270_158 #x0000000000000000))
(assert (= var20522005 temp270_158))
(assert (= temp270_159 #x0000000000000001))
(assert (= var18683626 temp270_159))
(assert (= var18683596 var18683626))
(assert (= var18683595 var18683596))
(assert (= temp270_161 #x0000000000000001))
(assert (= temp270_160 temp270_161))
(assert (= temp270_163 #xffffffffffffffff))
(assert (= temp270_162 temp270_163))
(assert (= temp270_164 #x0000000000000000))
(assert (= var18684037 temp270_164))
(assert (= var18684123 var18684037))
(assert (= temp270_165 #x0000000000000001))
(assert (= var18684117 (bvadd var18684123 temp270_165)))
(assert (= var18684116 var18684117))
(assert (= var18684135 var18684116))
(assert (= temp270_167 #x0000000000000003))
(assert (= temp270_166 temp270_167))
(assert (= temp270_169 #x0000000000000003))
(assert (= temp270_168 temp270_169))
(model-add temp270_1 () (_ BitVec 64) #x0000000000000001)
(model-add var79569 () (_ BitVec 64) #x0000000000000001)
(model-del k!0)
(model-add ARGNAME_input1_NAMEEND_DIM
           ()
           (_ BitVec 64)
           (ite k!0
                ARGNAME_input2_NAMEEND_DIM
                (bvnot ARGNAME_input2_NAMEEND_DIM)))



